%Chk=H2
#P RHF/3-21G Pop=full 

H2 single-point energy calculation

0 1
H 0.0 0.0 0.0
H 1.00 0.0 0.0

