%Chk=H2
#P RHF/STO-3G Pop=full SCF(MaxCycle = 200, Conver=20)

H2 single-point energy calculation

0 1
H 0.0 0.0 0.0
H 0.70 0.0 0.0

